proyfinal/src/viki/013/experimentInOfficeAgust.take6.output/b8b02d15-71dc-4f9e-9249-8f582247f00a.als.out
Reading from standard input... Use '--help' for help.
============================[ Problem Statistics ]=============================
|                                                                             |
|  Number of variables:         87638                                         |
|  Number of clauses:          161767                                         |
|  Parse time:                   0.03 s                                       |
|                                                                             |
============================[ Search Statistics ]==============================
| Conflicts |          ORIGINAL         |          LEARNT          | Progress |
|           |    Vars  Clauses Literals |    Limit  Clauses Lit/Cl |          |
===============================================================================
|       100 |   63945   110766   276719 |    40614      100     27 | 27.035 % |
|       250 |   63945   110766   276719 |    44675      250     42 | 27.035 % |
|       475 |   63945   110766   276719 |    49143      475     72 | 27.035 % |
|       812 |   63945   110766   276719 |    54057      812     65 | 27.035 % |
|      1318 |   55142    84506   212218 |    59463     1249     60 | 37.080 % |
|      2077 |   55017    84035   211101 |    65409     1930     58 | 37.222 % |
|      3216 |   54914    83615   210046 |    71950     3068     75 | 37.340 % |
|      4924 |   54685    82589   207563 |    79145     4706     67 | 37.601 % |
|      7486 |   54589    82197   206633 |    87060     7230     69 | 37.711 % |
|     11330 |   53990    80217   201625 |    95766    10876     69 | 38.394 % |
|     17096 |   53263    77715   195671 |   105342    15430     66 | 39.224 % |
===============================================================================
restarts              : 63
conflicts             : 18578          (8119 /sec)
decisions             : 65352          (0.00 % random) (28559 /sec)
propagations          : 26487850       (11575112 /sec)
conflict literals     : 1171701        (42.66 % deleted)
Memory used           : 34.16 MB
CPU time              : 2.28835 s

INDETERMINATE
